c This is an instance of the exact track of PACE 2020 Challenge, see https://pacechallenge.org/2020/ 
c TYPE: generated 
c ORIGIN: Python networkx package 
c DESCRIPTION: A cycle graph on p nodes with chords joining each vertex x to its inverse modulo p. This graph is a (mildly explicit) 3-regular expander. Generated using chordal_cycle_graph function from Python’s networkx package 
p tdp 127 189
1 2
1 3
2 99
3 4
4 5
4 6
5 7
5 8
6 97
6 79
7 9
7 10
8 98
8 120
9 11
9 12
10 57
10 60
11 13
11 14
12 87
12 42
13 15
13 16
14 114
14 36
15 17
15 18
16 38
16 124
17 19
17 20
18 29
18 31
19 21
19 22
20 126
20 74
21 23
21 24
22 28
22 46
23 25
23 26
24 70
24 114
25 27
25 28
26 42
26 75
27 29
27 30
28 110
29 31
30 72
30 127
31 32
32 33
32 34
33 35
33 36
34 127
34 40
35 37
35 38
36 38
37 39
37 40
39 41
39 42
40 115
41 43
41 44
43 45
43 46
44 112
44 72
45 47
45 48
46 104
47 49
47 50
48 68
48 96
49 51
49 52
50 77
50 80
51 53
51 54
52 116
52 107
53 55
53 56
54 84
54 68
55 57
55 58
56 104
56 94
57 59
58 64
58 108
59 73
59 76
60 61
60 62
61 63
61 64
62 113
62 95
63 65
63 66
64 88
65 67
65 68
66 92
66 106
67 69
67 70
69 71
69 72
70 102
71 73
71 74
73 75
74 112
75 90
76 77
76 78
77 79
78 123
78 99
79 100
80 81
80 82
81 83
81 84
82 83
82 86
83 85
84 93
85 106
85 119
86 87
86 88
87 89
88 105
89 94
89 122
90 91
90 92
91 93
91 94
92 121
93 95
95 116
96 97
96 98
97 99
98 118
100 101
100 102
101 103
101 104
102 119
103 105
103 106
105 107
107 117
108 109
108 110
109 111
109 112
110 120
111 113
111 114
113 115
115 123
116 117
117 118
118 119
120 121
121 122
122 123
124 125
124 126
125 126
125 127
